data/lp_files/pEFS/31_7.lp
\ Model foo
\ LP format - for model browsing. Use MPS format to capture full model detail.
Minimize
  z
Subject To
 allocateEach[1]: x[1,1] + x[2,1] = 1
 allocateEach[2]: x[1,2] + x[2,2] = 1
 allocateEach[3]: x[1,3] + x[2,3] = 1
 allocateEach[4]: x[1,4] + x[2,4] = 1
 allocateEach[5]: x[1,5] + x[2,5] = 1
 allocateEach[6]: x[1,6] + x[2,6] = 1
 allocateEach[7]: x[1,7] + x[2,7] = 1
 allocateEach[8]: x[1,8] + x[2,8] = 1
 allocateEach[9]: x[1,9] + x[2,9] = 1
 allocateEach[10]: x[1,10] + x[2,10] = 1
 allocateEach[11]: x[1,11] + x[2,11] = 1
 allocateAllCash: cashProportion[1] + cashProportion[2] = 1
 findWorstP[1,2]: z + 0.1177902548195846 cashProportion[1]
   - 0.1177902548195846 cashProportion[2] + 0.1272920020416977 x[1,1]
   + 0.1641014566728179 x[1,2] + 0.0746201264282068 x[1,3]
   + 0.0660410695355138 x[1,4] + 0.0256193804232597 x[1,5]
   + 0.1305312340492363 x[1,6] + 0.0053398248851545 x[1,7]
   + 0.1867171855981782 x[1,8] + 0.0240488436923319 x[1,9]
   + 0.00563430052220346 x[1,10] + 0.0722643213318152 x[1,11]
   - 0.1272920020416977 x[2,1] - 0.1641014566728179 x[2,2]
   - 0.0746201264282068 x[2,3] - 0.0660410695355138 x[2,4]
   - 0.0256193804232597 x[2,5] - 0.1305312340492363 x[2,6]
   - 0.0053398248851545 x[2,7] - 0.1867171855981782 x[2,8]
   - 0.0240488436923319 x[2,9] - 0.00563430052220346 x[2,10]
   - 0.0722643213318152 x[2,11] >= 0
 findWorstP[2,1]: z - 0.1107113202324938 cashProportion[1]
   + 0.1107113202324938 cashProportion[2] - 0.139404004059415 x[1,1]
   - 0.1161361749238859 x[1,2] - 0.0698034874065873 x[1,3]
   - 0.0980348740658732 x[1,4] - 0.0827751637604945 x[1,5]
   - 0.0340252790847864 x[1,6] - 0.0468862441184611 x[1,7]
   - 0.0966140787895562 x[1,8] - 0.0459082941230741 x[1,9]
   - 0.0957283882276963 x[1,10] - 0.063972691207676 x[1,11]
   + 0.139404004059415 x[2,1] + 0.1161361749238859 x[2,2]
   + 0.0698034874065873 x[2,3] + 0.0980348740658732 x[2,4]
   + 0.0827751637604945 x[2,5] + 0.0340252790847864 x[2,6]
   + 0.0468862441184611 x[2,7] + 0.0966140787895562 x[2,8]
   + 0.0459082941230741 x[2,9] + 0.0957283882276963 x[2,10]
   + 0.063972691207676 x[2,11] >= 0
Bounds
 z <= 1
 -infinity <= cashProportion[1] <= 1
 -infinity <= cashProportion[2] <= 1
Binaries
 x[1,1] x[1,2] x[1,3] x[1,4] x[1,5] x[1,6] x[1,7] x[1,8] x[1,9] x[1,10]
 x[1,11] x[2,1] x[2,2] x[2,3] x[2,4] x[2,5] x[2,6] x[2,7] x[2,8] x[2,9]
 x[2,10] x[2,11]
End
