data/mps_files/pEFS/31_7.mps
NAME foo
ROWS
 N  OBJ
 E  allocateEach[1]
 E  allocateEach[2]
 E  allocateEach[3]
 E  allocateEach[4]
 E  allocateEach[5]
 E  allocateEach[6]
 E  allocateEach[7]
 E  allocateEach[8]
 E  allocateEach[9]
 E  allocateEach[10]
 E  allocateEach[11]
 E  allocateAllCash
 G  findWorstP[1,2]
 G  findWorstP[2,1]
COLUMNS
    z         OBJ       1
    z         findWorstP[1,2]  1
    z         findWorstP[2,1]  1
    cashProportion[1]  allocateAllCash  1
    cashProportion[1]  findWorstP[1,2]  1.1779025481958462e-01
    cashProportion[1]  findWorstP[2,1]  -1.1071132023249376e-01
    cashProportion[2]  allocateAllCash  1
    cashProportion[2]  findWorstP[1,2]  -1.1779025481958462e-01
    cashProportion[2]  findWorstP[2,1]  1.1071132023249376e-01
    MARKER    'MARKER'                 'INTORG'
    x[1,1]    allocateEach[1]  1
    x[1,1]    findWorstP[1,2]  1.2729200204169774e-01
    x[1,1]    findWorstP[2,1]  -1.3940400405941503e-01
    x[1,2]    allocateEach[2]  1
    x[1,2]    findWorstP[1,2]  1.6410145667281795e-01
    x[1,2]    findWorstP[2,1]  -1.1613617492388593e-01
    x[1,3]    allocateEach[3]  1
    x[1,3]    findWorstP[1,2]  7.4620126428206840e-02
    x[1,3]    findWorstP[2,1]  -0.0698034874065873
    x[1,4]    allocateEach[4]  1
    x[1,4]    findWorstP[1,2]  6.6041069535513766e-02
    x[1,4]    findWorstP[2,1]  -0.0980348740658732
    x[1,5]    allocateEach[5]  1
    x[1,5]    findWorstP[1,2]  2.5619380423259650e-02
    x[1,5]    findWorstP[2,1]  -8.2775163760494486e-02
    x[1,6]    allocateEach[6]  1
    x[1,6]    findWorstP[1,2]  1.3053123404923633e-01
    x[1,6]    findWorstP[2,1]  -3.4025279084786413e-02
    x[1,7]    allocateEach[7]  1
    x[1,7]    findWorstP[1,2]  5.3398248851545017e-03
    x[1,7]    findWorstP[2,1]  -4.6886244118461096e-02
    x[1,8]    allocateEach[8]  1
    x[1,8]    findWorstP[1,2]  1.8671718559817818e-01
    x[1,8]    findWorstP[2,1]  -0.0966140787895562
    x[1,9]    allocateEach[9]  1
    x[1,9]    findWorstP[1,2]  2.4048843692331855e-02
    x[1,9]    findWorstP[2,1]  -4.5908294123074074e-02
    x[1,10]   allocateEach[10]  1
    x[1,10]   findWorstP[1,2]  5.6343005222034637e-03
    x[1,10]   findWorstP[2,1]  -9.5728388227696262e-02
    x[1,11]   allocateEach[11]  1
    x[1,11]   findWorstP[1,2]  7.2264321331815151e-02
    x[1,11]   findWorstP[2,1]  -6.3972691207675972e-02
    x[2,1]    allocateEach[1]  1
    x[2,1]    findWorstP[1,2]  -1.2729200204169774e-01
    x[2,1]    findWorstP[2,1]  1.3940400405941503e-01
    x[2,2]    allocateEach[2]  1
    x[2,2]    findWorstP[1,2]  -1.6410145667281795e-01
    x[2,2]    findWorstP[2,1]  1.1613617492388593e-01
    x[2,3]    allocateEach[3]  1
    x[2,3]    findWorstP[1,2]  -7.4620126428206840e-02
    x[2,3]    findWorstP[2,1]  0.0698034874065873
    x[2,4]    allocateEach[4]  1
    x[2,4]    findWorstP[1,2]  -6.6041069535513766e-02
    x[2,4]    findWorstP[2,1]  0.0980348740658732
    x[2,5]    allocateEach[5]  1
    x[2,5]    findWorstP[1,2]  -2.5619380423259650e-02
    x[2,5]    findWorstP[2,1]  8.2775163760494486e-02
    x[2,6]    allocateEach[6]  1
    x[2,6]    findWorstP[1,2]  -1.3053123404923633e-01
    x[2,6]    findWorstP[2,1]  3.4025279084786413e-02
    x[2,7]    allocateEach[7]  1
    x[2,7]    findWorstP[1,2]  -5.3398248851545017e-03
    x[2,7]    findWorstP[2,1]  4.6886244118461096e-02
    x[2,8]    allocateEach[8]  1
    x[2,8]    findWorstP[1,2]  -1.8671718559817818e-01
    x[2,8]    findWorstP[2,1]  0.0966140787895562
    x[2,9]    allocateEach[9]  1
    x[2,9]    findWorstP[1,2]  -2.4048843692331855e-02
    x[2,9]    findWorstP[2,1]  4.5908294123074074e-02
    x[2,10]   allocateEach[10]  1
    x[2,10]   findWorstP[1,2]  -5.6343005222034637e-03
    x[2,10]   findWorstP[2,1]  9.5728388227696262e-02
    x[2,11]   allocateEach[11]  1
    x[2,11]   findWorstP[1,2]  -7.2264321331815151e-02
    x[2,11]   findWorstP[2,1]  6.3972691207675972e-02
    MARKER    'MARKER'                 'INTEND'
RHS
    RHS1      allocateEach[1]  1
    RHS1      allocateEach[2]  1
    RHS1      allocateEach[3]  1
    RHS1      allocateEach[4]  1
    RHS1      allocateEach[5]  1
    RHS1      allocateEach[6]  1
    RHS1      allocateEach[7]  1
    RHS1      allocateEach[8]  1
    RHS1      allocateEach[9]  1
    RHS1      allocateEach[10]  1
    RHS1      allocateEach[11]  1
    RHS1      allocateAllCash  1
BOUNDS
 UP BND1      z         1
 MI BND1      cashProportion[1]
 UP BND1      cashProportion[1]  1
 MI BND1      cashProportion[2]
 UP BND1      cashProportion[2]  1
 BV BND1      x[1,1]  
 BV BND1      x[1,2]  
 BV BND1      x[1,3]  
 BV BND1      x[1,4]  
 BV BND1      x[1,5]  
 BV BND1      x[1,6]  
 BV BND1      x[1,7]  
 BV BND1      x[1,8]  
 BV BND1      x[1,9]  
 BV BND1      x[1,10] 
 BV BND1      x[1,11] 
 BV BND1      x[2,1]  
 BV BND1      x[2,2]  
 BV BND1      x[2,3]  
 BV BND1      x[2,4]  
 BV BND1      x[2,5]  
 BV BND1      x[2,6]  
 BV BND1      x[2,7]  
 BV BND1      x[2,8]  
 BV BND1      x[2,9]  
 BV BND1      x[2,10] 
 BV BND1      x[2,11] 
ENDATA
